
Gurobi 7.5.2 (linux64) logging started Sat Jun 23 16:36:05 2018

Changed value of parameter LogFile to result/ilp/simNo_8-n_100-m_40-s_7-minVAF_0.05-cov_2000-k_1-fn_0.15-fp_0.0001-na_0.15.ILP.gurobiSolverLog
   Prev: gurobi.log  Default: 
Changed value of parameter TimeLimit to 86400.0
   Prev: 1e+100  Min: 0.0  Max: 1e+100  Default: 1e+100
Optimize a model with 1265601 rows, 330440 columns and 3489120 nonzeros
Variable types: 0 continuous, 330440 integer (330440 binary)
Coefficient statistics:
  Matrix range     [1e-03, 2e+00]
  Objective range  [2e+00, 2e+01]
  Bounds range     [1e+00, 1e+00]
  RHS range        [1e-01, 2e+00]
Found heuristic solution: objective -12812.37919
Presolve removed 390868 rows and 225770 columns (presolve time = 6s) ...
Presolve removed 391601 rows and 225770 columns (presolve time = 10s) ...
Presolve removed 392038 rows and 225770 columns (presolve time = 15s) ...
Presolve removed 392038 rows and 225770 columns (presolve time = 20s) ...
Presolve removed 392038 rows and 225770 columns (presolve time = 25s) ...
Presolve removed 392038 rows and 225770 columns (presolve time = 31s) ...
Presolve removed 392038 rows and 225770 columns
Presolve time: 32.60s
Presolved: 873563 rows, 104670 columns, 2431585 nonzeros
Variable types: 0 continuous, 104670 integer (104670 binary)
Presolve removed 0 rows and 0 columns (presolve time = 5s) ...
Presolved: 104670 rows, 978233 columns, 2536255 nonzeros

Presolve removed 104670 rows and 978233 columns

Root simplex log...

Iteration    Objective       Primal Inf.    Dual Inf.      Time
       0    1.5676162e+01   0.000000e+00   8.457200e+04     44s
    7352   -1.5802839e+02   0.000000e+00   6.774483e+04     45s
   21002   -2.3220524e+02   0.000000e+00   1.420339e+06     50s
   29738   -2.6229097e+02   0.000000e+00   2.740872e+05     55s
   41750   -2.9882790e+02   0.000000e+00   1.572700e+04     60s
   48243   -3.0904362e+02   0.000000e+00   0.000000e+00     65s
   48243   -3.0904362e+02   0.000000e+00   0.000000e+00     67s

Root relaxation: objective -3.090436e+02, 48243 iterations, 31.11 seconds
Total elapsed time = 98.59s
Total elapsed time = 106.33s
Total elapsed time = 115.47s

    Nodes    |    Current Node    |     Objective Bounds      |     Work
 Expl Unexpl |  Obj  Depth IntInf | Incumbent    BestBd   Gap | It/Node Time

     0     0 -309.04362    0 1413 -12812.379 -309.04362  97.6%     -  122s
H    0     0                    -319.7861117 -309.04362  3.36%     -  152s
     0     0 -311.39435    0 1408 -319.78611 -311.39435  2.62%     -  176s
     0     0 -312.21496    0 1556 -319.78611 -312.21496  2.37%     -  212s
     0     0 -312.26792    0 1562 -319.78611 -312.26792  2.35%     -  235s
     0     0 -312.94579    0 1387 -319.78611 -312.94579  2.14%     -  271s
     0     0 -312.94579    0  165 -319.78611 -312.94579  2.14%     -  369s
     0     0 -312.94579    0  165 -319.78611 -312.94579  2.14%     -  371s
     0     0 -313.15936    0  181 -319.78611 -313.15936  2.07%     -  373s
     0     0 -313.15936    0  183 -319.78611 -313.15936  2.07%     -  375s
     0     0 -314.15409    0  186 -319.78611 -314.15409  1.76%     -  377s
     0     0 -314.33472    0  108 -319.78611 -314.33472  1.70%     -  379s
     0     0 -314.33472    0  109 -319.78611 -314.33472  1.70%     -  381s
     0     0 -314.33472    0  112 -319.78611 -314.33472  1.70%     -  382s
     0     0 -314.45415    0  190 -319.78611 -314.45415  1.67%     -  384s
     0     0 -314.45415    0  190 -319.78611 -314.45415  1.67%     -  386s
     0     0 -315.20183    0  166 -319.78611 -315.20183  1.43%     -  387s
     0     0 -315.20183    0  166 -319.78611 -315.20183  1.43%     -  389s
     0     0 -315.33162    0  179 -319.78611 -315.33162  1.39%     -  390s
     0     0 -315.33162    0  172 -319.78611 -315.33162  1.39%     -  392s
     0     0 -315.33991    0  192 -319.78611 -315.33991  1.39%     -  394s
     0     0 -315.35235    0  181 -319.78611 -315.35235  1.39%     -  395s
     0     0 -315.54103    0  195 -319.78611 -315.54103  1.33%     -  397s
     0     0 -315.57064    0  196 -319.78611 -315.57064  1.32%     -  398s
     0     0 -316.09567    0  191 -319.78611 -316.09567  1.15%     -  399s
     0     0 -316.20603    0  189 -319.78611 -316.20603  1.12%     -  401s
     0     0 -316.27679    0  213 -319.78611 -316.27679  1.10%     -  402s
     0     0 -316.32962    0  190 -319.78611 -316.32962  1.08%     -  404s
     0     0 -316.33599    0  214 -319.78611 -316.33599  1.08%     -  405s
     0     0 -316.36798    0  189 -319.78611 -316.36798  1.07%     -  407s
     0     0 -316.36798    0  190 -319.78611 -316.36798  1.07%     -  408s
     0     0 -316.74765    0  189 -319.78611 -316.74765  0.95%     -  409s
     0     0 -316.82838    0  223 -319.78611 -316.82838  0.92%     -  412s
     0     0 -316.84651    0  225 -319.78611 -316.84651  0.92%     -  413s
     0     0 -316.84874    0  198 -319.78611 -316.84874  0.92%     -  414s
     0     0 -316.88773    0  197 -319.78611 -316.88773  0.91%     -  415s
     0     0 -317.44980    0  113 -319.78611 -317.44980  0.73%     -  417s
     0     0 -317.52942    0  193 -319.78611 -317.52942  0.71%     -  418s
     0     0 -317.70939    0  122 -319.78611 -317.70939  0.65%     -  420s
     0     0 -317.81555    0  194 -319.78611 -317.81555  0.62%     -  421s
     0     0 -317.81555    0  196 -319.78611 -317.81555  0.62%     -  422s
     0     0 -317.91706    0  123 -319.78611 -317.91706  0.58%     -  425s
     0     0 -317.91706    0   87 -319.78611 -317.91706  0.58%     -  433s
     0     0 -317.91706    0   95 -319.78611 -317.91706  0.58%     -  435s
     0     0 -317.91706    0   96 -319.78611 -317.91706  0.58%     -  436s
     0     0 -318.22447    0  116 -319.78611 -318.22447  0.49%     -  437s
     0     0 -318.22857    0  107 -319.78611 -318.22857  0.49%     -  437s
     0     0 -318.22857    0  107 -319.78611 -318.22857  0.49%     -  438s
     0     0 -318.22857    0   92 -319.78611 -318.22857  0.49%     -  439s
     0     0 -318.22857    0   87 -319.78611 -318.22857  0.49%     -  443s
     0     0 -318.22857    0   84 -319.78611 -318.22857  0.49%     -  444s
     0     0     cutoff    0      -319.78611 -319.78611  0.00%     -  444s

Cutting planes:
  Gomory: 2
  Zero half: 36

Explored 1 nodes (68736 simplex iterations) in 444.81 seconds
Thread count was 1 (of 80 available processors)

Solution count 5: -319.786 -319.786 -319.786 ... -12812.4

Optimal solution found (tolerance 1.00e-04)
Best objective -3.197861117468e+02, best bound -3.197861117468e+02, gap 0.0000%
